letting initialStacks = [32, 9, 16, 22, 28, 44, 47, 23, 40, 17, 51, 2, 37, 3, 39, 15, 10, 25, 6, 8, 42, 7, 27, 43, 49, 14, 33, 35, 12, 19, 11, 24, 36, 45, 20, 18, 50, 30, 41, 31, 34, 4, 21, 13, 1, 5, 29, 46, 48, 26, 38]
